c Random 4-CNF over 20 variables and 120 clauses
c Generated with `cnfgen`
c (C) 2012-2016 Massimo Lauria <lauria.massimo@gmail.com>
c https://massimolauria.github.io/cnfgen
c
c COMMAND LINE: cnfgen --output tmp-4-20-120.dimacs --output-format dimacs randkcnf 4 20 120
c
c sdimacs generated by gen-sdimacs
c
p cnf 20 120
r 0.5 1 2 3 4 5 6 7 8 9 10 0
e  11 12 13 14 15 16 17 18 19 20 0
-6 -7 12 15 0
5 -10 14 15 0
-5 -14 -15 18 0
-1 -9 -15 18 0
2 -5 -16 20 0
1 8 -10 11 0
-3 -8 -11 19 0
-2 10 13 -20 0
1 2 3 11 0
-6 9 17 -19 0
1 -7 11 19 0
11 13 -14 -18 0
11 -15 -16 -18 0
2 -3 -4 -10 0
-2 6 -18 -20 0
-1 2 -9 -15 0
3 6 -13 -17 0
2 -11 -13 -20 0
-8 -9 -17 -19 0
6 -8 11 15 0
5 6 -16 -19 0
1 -2 -9 -13 0
3 7 12 16 0
3 4 6 -19 0
-7 -12 15 17 0
-5 -9 -11 18 0
1 7 12 15 0
-9 -10 -16 19 0
1 -8 -16 -18 0
2 3 4 -9 0
-3 6 -7 -13 0
2 -3 4 8 0
1 -2 8 -16 0
1 -6 -11 19 0
1 8 13 -18 0
-1 5 9 -13 0
3 9 -11 -20 0
3 -9 -15 -17 0
-7 10 13 -18 0
1 -8 -10 -16 0
1 -6 13 -15 0
-2 -3 -15 18 0
-9 12 15 20 0
9 10 12 14 0
-2 3 -6 -16 0
1 9 18 -20 0
11 12 17 20 0
-5 6 -13 19 0
5 -7 -18 20 0
2 -8 -16 -17 0
5 -11 15 19 0
-3 4 5 17 0
-2 11 14 18 0
5 -8 -16 -17 0
-1 4 6 -16 0
3 -4 11 -19 0
1 2 4 13 0
-6 -8 -10 -15 0
6 -13 15 -16 0
-7 -8 -18 20 0
8 -9 -10 -18 0
1 -6 -8 17 0
6 -11 12 -19 0
-2 9 -10 16 0
-1 6 9 -15 0
-1 5 -7 -11 0
-11 15 17 20 0
-1 -7 -16 -19 0
-1 6 -8 -16 0
-2 -7 -11 18 0
-8 -10 14 17 0
5 -8 13 16 0
3 4 6 16 0
9 -11 14 15 0
-2 5 -12 -14 0
3 4 6 -11 0
1 -6 8 -15 0
-3 -11 12 13 0
4 9 -11 17 0
2 -12 17 -18 0
1 12 -14 -18 0
2 4 -5 -12 0
-12 -14 16 -20 0
-2 -9 12 -15 0
-5 -7 -10 15 0
-1 -8 -11 20 0
3 -9 11 -20 0
-4 -12 14 18 0
-5 6 13 -17 0
10 11 -12 -18 0
-2 -10 14 16 0
-1 13 -14 17 0
-2 -11 -14 20 0
-3 8 13 16 0
1 4 16 19 0
-1 5 -16 17 0
-1 -8 -9 11 0
-1 8 -10 -15 0
-5 -6 -13 -19 0
-7 -9 19 -20 0
-1 -3 -14 -20 0
6 10 13 -20 0
2 -11 16 17 0
-1 4 -6 -16 0
-5 7 -16 -20 0
8 -9 13 -14 0
-11 -12 13 -14 0
-10 11 -14 -16 0
-4 9 13 15 0
-1 -8 -17 18 0
4 7 16 20 0
3 -5 -9 -19 0
-3 10 12 17 0
1 5 -9 14 0
2 -9 13 -14 0
3 4 16 18 0
-6 7 -9 18 0
-9 10 12 -14 0
6 -12 14 -15 0
7 -11 -18 -20 0
